data/processed_heuristic-threshold/instances/1/8/ds_807_courier_3156/pairwise.tsp
NAME: ds_807_courier_3156
TYPE: TSP
COMMENT: nil
DIMENSION: 9
EDGE_WEIGHT_TYPE: EXPLICIT
EDGE_WEIGHT_FORMAT: FULL_MATRIX
EDGE_WEIGHT_SECTION
9999 3428 3755 3301 3370 3341 3540 3833 3118 
3428 9999 507 130 516 893 128 617 369 
3755 507 9999 612 414 688 505 110 861 
3301 130 612 9999 537 902 241 721 249 
3370 516 414 537 9999 378 605 469 733 
3341 893 688 902 378 9999 983 689 1068 
3540 128 505 241 605 983 9999 611 447 
3833 617 110 721 469 689 611 9999 970 
3118 369 861 249 733 1068 447 970 9999 
