data/processed_heuristic-threshold/instances/1/8/ds_807_courier_3156/pairwise.sol
9
0 8 3 1 6 2 7 4 5 
